! PAL4 B3LYP Def2-SVP Opt Freq

#MeOH optimisation and frequency analysis

*xyz 0 1
 C     0.000000     0.000000     0.000000
 O     0.000000     0.000000     1.400000
 H     1.026720     0.000000    -0.362996
 H    -0.513360    -0.889165    -0.363000
 H    -0.513360     0.889165    -0.363000
 H    -0.895669     0.000000     1.716667
*
